g3 0 1 0	# problem ex2_1_8
 24 10 1 0 10	# vars, constraints, objectives, ranges, eqns
 0 1	# nonlinear constraints, objectives
 0 0	# network constraints: nonlinear, linear
 0 24 0	# nonlinear vars in constraints, objectives, both
 0 0 0 1	# linear network variables; functions; arith, flags
 0 0 0 0 0	# discrete variables: binary, integer, nonlinear (b,c,o)
 48 24	# nonzeros in Jacobian, gradients
 0 0	# max name lengths: constraints, variables
 0 0 0 0 0	# common exprs: b,c,o,c1,o1
b
0 0 100
0 0 100
0 0 100
0 0 100
0 0 100
0 0 100
0 0 100
0 0 100
0 0 100
0 0 100
0 0 100
0 0 100
0 0 100
0 0 100
0 0 100
0 0 100
0 0 100
0 0 100
0 0 100
0 0 100
0 0 100
0 0 100
0 0 100
0 0 100
x9
0 6
1 2
5 3
7 21
8 20
12 24
16 3
18 13
21 12
r
4 8
4 24
4 20
4 24
4 16
4 12
4 29
4 41
4 13
4 21
C0
n0
C1
n0
C2
n0
C3
n0
C4
n0
C5
n0
C6
n0
C7
n0
C8
n0
C9
n0
O0 0
o16
o54
24
o2
o2
n7
v0
v0
o2
o2
n4
v1
v1
o2
o2
n6
v2
v2
o2
o2
n8
v3
v3
o2
o2
n12
v4
v4
o2
o2
n9
v5
v5
o2
o2
n14
v6
v6
o2
o2
n7
v7
v7
o2
o2
n13
v8
v8
o2
o2
n12
v9
v9
o2
o2
n8
v10
v10
o2
o2
n4
v11
v11
o2
o2
n7
v12
v12
o2
o2
n9
v13
v13
o2
o2
n16
v14
v14
o2
o2
n8
v15
v15
o2
o2
n4
v16
v16
o2
o2
n10
v17
v17
o2
o2
n21
v18
v18
o2
o2
n13
v19
v19
o2
o2
n17
v20
v20
o2
o2
n9
v21
v21
o2
o2
n8
v22
v22
o2
o2
n4
v23
v23
k23
2
4
6
8
10
12
14
16
18
20
22
24
26
28
30
32
34
36
38
40
42
44
46
J0 4
0 1
1 1
2 1
3 1
J1 4
4 1
5 1
6 1
7 1
J2 4
8 1
9 1
10 1
11 1
J3 4
12 1
13 1
14 1
15 1
J4 4
16 1
17 1
18 1
19 1
J5 4
20 1
21 1
22 1
23 1
J6 6
0 1
4 1
8 1
12 1
16 1
20 1
J7 6
1 1
5 1
9 1
13 1
17 1
21 1
J8 6
2 1
6 1
10 1
14 1
18 1
22 1
J9 6
3 1
7 1
11 1
15 1
19 1
23 1
G0 24
0 300
1 270
2 460
3 800
4 740
5 600
6 540
7 380
8 300
9 490
10 380
11 760
12 430
13 250
14 390
15 600
16 210
17 830
18 470
19 680
20 360
21 290
22 400
23 310
